118662
75
74
14
13
12
15
16
17
18
37
36
38
39
61
62
63
64
73
72
71
70
67
68
69
47
48
44
45
46
24
23
22
21
25
26
27
43
42
54
53
49
50
66
65
51
52
55
56
57
58
59
60
41
40
34
35
32
33
28
29
30
31
19
20
10
11
9
8
7
6
5
4
3
2
1
0
